N = 13;
H = 6;
T = 2;

avail = array3d(1..N, 1..H, 1..T, [4, 5, 2, 3, 5, 4, 2, 6, 1, 3, 10, 7, 0, 4, 9, 4, 4, 5, 9, 9, 10, 10, 0, 3, 4, 6, 6, 0, 6, 5, 10, 9, 6, 1, 10, 9, 2, 6, 0, 6, 9, 0, 10, 1, 10, 0, 9, 3, 4, 5, 6, 1, 8, 1, 2, 0, 0, 6, 10, 5, 3, 5, 7, 7, 1, 10, 1, 1, 0, 0, 2, 8, 1, 6, 2, 3, 8, 1, 1, 0, 3, 9, 3, 3, 5, 0, 3, 1, 7, 5, 4, 4, 4, 7, 0, 3, 0, 1, 6, 4, 2, 5, 5, 7, 4, 8, 7, 8, 3, 4, 5, 9, 6, 8, 4, 4, 4, 1, 4, 7, 7, 3, 8, 3, 9, 6, 1, 6, 9, 6, 5, 8, 10, 0, 6, 7, 5, 6, 9, 4, 1, 7, 5, 3, 0, 7, 5, 9, 2, 10, 5, 1, 3, 2, 1, 10]);

r = array2d(1..H, 1..T, [3, 4, 4, 5, 0, 4, 2, 6, 3, 3, 5, 5]);
